

units		metal
dimension	3
atom_style	atomic
atom_modify	sort 0 0.0

lattice	bcc 2.7
region		box block 0 1 0 1 0 1
create_box	1 box
create_atoms	1 box
mass		1 28.08

#velocity	all create 300.0 87293 loop geom

variable	gnn_energy string ""

fix		gnn all external pf/callback 1 1

fix		extra all print 1 "GNN energy: ${gnn_energy}"

#compute	1 all pe

thermo		1
thermo_style	custom step pe etotal fnorm

dump	1 all custom 1 out id fx fy fz
